215 300 102 104 126 111 119 100 119 116 118 135 146 138 115 126 121 125 110 115 114 124 143 143 138 122 130 116 109 121 141 126 134 144 104 134 104 123 134 148 139 127 106 108 114 146 134 109 120 118 124 108 142 142 101 103 113 105 120 123 100 110 123 134 128 127 142 106 125 125 129 138 101 135 147 115 105 104 149 150 123 123 108 139 139 134 143 101 113 112 149 113 147 146 121 150 148 112 105 122 137 134 109 113 144 130 102 149 135 101 148 107 124 130 120 137 113 112 112 100 149 111 113 146 131 134 145 128 146 124 150 107 108 134 120 126 113 122 124 148 123 146 129 121 126 150 107 113 111 120 114 135 105 127 104 136 136 123 114 105 147 138 112 129 121 106 104 135 103 128 106 126 149 136 122 124 135 103 137 120 123 125 104 102 127 108 113 112 131 127 142 102 139 129 131 110 135 136 119 138 138 150 139 136 135 110 109 144 138 121 139 136 120 117 138 147 126 